NAME : instances/clustered-mixed-tsp/instance-29.tsp
COMMENT : No Comment
TYPE : TSP
DIMENSION: 47
EDGE_WEIGHT_TYPE : EUC_2D
NODE_COORD_SECTION
1 440 766 
2 1040 518 
3 424 344 
4 439 191 
5 332 778 
6 47 28 
7 681 -16 
8 986 542 
9 645 32 
10 130 377 
11 178 353 
12 1022 614 
13 483 952 
14 1016 500 
15 368 772 
16 1016 518 
17 416 760 
18 94 395 
19 711 723 
20 35 28 
21 208 305 
22 65 -20 
23 416 820 
24 184 389 
25 675 693 
26 154 293 
27 361 203 
28 326 694 
29 445 131 
30 364 425 
31 968 602 
32 386 730 
33 178 269 
34 980 578 
35 1004 524 
36 130 395 
37 956 584 
38 314 808 
39 1016 494 
40 -13 -20 
41 322 473 
42 741 699 
43 208 281 
44 356 706 
45 717 735 
46 404 814 
47 507 982 
EOF
